Route #1: 42 31 26 20 17 34
Route #2: 33 2 51 15 11 36
Route #3: 22 19 54 23 52 24 44 50
Route #4: 8 21 12 32 10
Route #5: 25 28 13 27 41
Route #6: 45 1 48 29
Route #7: 37 3 14 46 7 30 4
Route #8: 5 53 47 35 6 18
Route #9: 43 9 49 39 16 38 40
cost 1147.892578125